min: 19.200000000000003 * x12 + 50.9 * x13 + 52.0 * x14 + 57.199999999999996 * x15 + 58.699999999999996 * x16 + 68.0 * x17 + 19.8 * x21 + 50.7 * x23 + 53.5 * x24 + 60.0 * x25 + 56.0 * x26 + 66.4 * x27 + 49.1 * x31 + 48.300000000000004 * x32 + 12.6 * x34 + 20.7 * x35 + 18.299999999999997 * x36 + 23.799999999999997 * x37 + 48.1 * x41 + 49.0 * x42 + 10.5 * x43 + 12.3 * x45 + 21.7 * x46 + 24.1 * x47 + 51.699999999999996 * x51 + 53.9 * x52 + 17.0 * x53 + 10.700000000000001 * x54 + 26.599999999999998 * x56 + 25.4 * x57 + 56.0 * x61 + 52.7 * x62 + 17.4 * x63 + 22.9 * x64 + 29.4 * x65 + 16.4 * x67 + 62.5 * x71 + 60.3 * x72 + 20.099999999999998 * x73 + 22.5 * x74 + 25.4 * x75 + 13.6 * x76;

x12 + x13 + x14 + x15 + x16 + x17 = 1;
x21 + x23 + x24 + x25 + x26 + x27 = 1;
x31 + x32 + x34 + x35 + x36 + x37 = 1;
x41 + x42 + x43 + x45 + x46 + x47 = 1;
x51 + x52 + x53 + x54 + x56 + x57 = 1;
x61 + x62 + x63 + x64 + x65 + x67 = 1;
x71 + x72 + x73 + x74 + x75 + x76 = 1;
x21 + x31 + x41 + x51 + x61 + x71 = 1;
x12 + x32 + x42 + x52 + x62 + x72 = 1;
x13 + x23 + x43 + x53 + x63 + x73 = 1;
x14 + x24 + x34 + x54 + x64 + x74 = 1;
x15 + x25 + x35 + x45 + x65 + x75 = 1;
x16 + x26 + x36 + x46 + x56 + x76 = 1;
x17 + x27 + x37 + x47 + x57 + x67 = 1;
x12 + x21 = 1;
x13 + x31 = 1;
x14 + x41 = 1;
x15 + x51 = 1;
x16 + x61 = 1;
x17 + x71 = 1;
x23 + x32 = 1;
x24 + x42 = 1;
x25 + x52 = 1;
x26 + x62 = 1;
x27 + x72 = 1;
x34 + x43 = 1;
x35 + x53 = 1;
x36 + x63 = 1;
x37 + x73 = 1;
x45 + x54 = 1;
x46 + x64 = 1;
x47 + x74 = 1;
x56 + x65 = 1;
x57 + x75 = 1;
x67 + x76 = 1;
b2 >= b1 + 19.8 - 999999999 + 999999999 * x12;
b3 >= b1 + 49.1 - 999999999 + 999999999 * x13;
b4 >= b1 + 48.1 - 999999999 + 999999999 * x14;
b5 >= b1 + 51.699999999999996 - 999999999 + 999999999 * x15;
b6 >= b1 + 56.0 - 999999999 + 999999999 * x16;
b7 >= b1 + 62.5 - 999999999 + 999999999 * x17;
b1 >= b2 + 19.200000000000003 - 999999999 + 999999999 * x21;
b3 >= b2 + 48.300000000000004 - 999999999 + 999999999 * x23;
b4 >= b2 + 49.0 - 999999999 + 999999999 * x24;
b5 >= b2 + 53.9 - 999999999 + 999999999 * x25;
b6 >= b2 + 52.7 - 999999999 + 999999999 * x26;
b7 >= b2 + 60.3 - 999999999 + 999999999 * x27;
b1 >= b3 + 50.9 - 999999999 + 999999999 * x31;
b2 >= b3 + 50.7 - 999999999 + 999999999 * x32;
b4 >= b3 + 10.5 - 999999999 + 999999999 * x34;
b5 >= b3 + 17.0 - 999999999 + 999999999 * x35;
b6 >= b3 + 17.4 - 999999999 + 999999999 * x36;
b7 >= b3 + 20.099999999999998 - 999999999 + 999999999 * x37;
b1 >= b4 + 52.0 - 999999999 + 999999999 * x41;
b2 >= b4 + 53.5 - 999999999 + 999999999 * x42;
b3 >= b4 + 12.6 - 999999999 + 999999999 * x43;
b5 >= b4 + 10.700000000000001 - 999999999 + 999999999 * x45;
b6 >= b4 + 22.9 - 999999999 + 999999999 * x46;
b7 >= b4 + 22.5 - 999999999 + 999999999 * x47;
b1 >= b5 + 57.199999999999996 - 999999999 + 999999999 * x51;
b2 >= b5 + 60.0 - 999999999 + 999999999 * x52;
b3 >= b5 + 20.7 - 999999999 + 999999999 * x53;
b4 >= b5 + 12.3 - 999999999 + 999999999 * x54;
b6 >= b5 + 29.4 - 999999999 + 999999999 * x56;
b7 >= b5 + 25.4 - 999999999 + 999999999 * x57;
b1 >= b6 + 58.699999999999996 - 999999999 + 999999999 * x61;
b2 >= b6 + 56.0 - 999999999 + 999999999 * x62;
b3 >= b6 + 18.299999999999997 - 999999999 + 999999999 * x63;
b4 >= b6 + 21.7 - 999999999 + 999999999 * x64;
b5 >= b6 + 26.599999999999998 - 999999999 + 999999999 * x65;
b7 >= b6 + 13.6 - 999999999 + 999999999 * x67;
b1 >= b7 + 68.0 - 999999999 + 999999999 * x71;
b2 >= b7 + 66.4 - 999999999 + 999999999 * x72;
b3 >= b7 + 23.799999999999997 - 999999999 + 999999999 * x73;
b4 >= b7 + 24.1 - 999999999 + 999999999 * x74;
b5 >= b7 + 25.4 - 999999999 + 999999999 * x75;
b6 >= b7 + 16.4 - 999999999 + 999999999 * x76;
0.0 <= b1 <= 0.0;
10.0 <= b2 <= 20.0;
120.0 <= b3 <= 150.0;
120.0 <= b4 <= 150.0;
120.0 <= b5 <= 150.0;
60.0 <= b6 <= 80.0;
90.0 <= b7 <= 130.0;

bin x12, x13, x14, x15, x16, x17, x21, x23, x24, x25, x26, x27, x31, x32, x34, x35, x36, x37, x41, x42, x43, x45, x46, x47, x51, x52, x53, x54, x56, x57, x61, x62, x63, x64, x65, x67, x71, x72, x73, x74, x75, x76;